100
1000
210
206
205
204
203
202
202
202
200
199
198
192
189
186
185
183
183
183
182
181
176
176
175
175
174
170
170
170
170
168
162
161
159
156
152
149
149
148
146
146
146
145
144
144
144
141
141
141
141
139
138
135
135
135
135
134
134
133
127
127
126
126
125
124
119
119
119
116
115
115
108
107
103
98
97
96
94
94
93
91
90
89
89
89
89
87
86
86
84
83
82
82
82
81
80
78
77
74
73
72
